Normalized Data/p10_9_normalized_split0.vrp
NAME:p10_9_NORMALIZED_split
BEST_KNOWN: 0
COMMENT: 0
DIMENSION: 829
CAPACITY: 100
EDGE_WEIGHT_FORMAT: FUNCTION
EDGE_WEIGHT_TYPE: EXACT_2D
NODE_COORD_SECTION
1 0.00000 0.00000
2 -9 29
3 -9 29
4 -9 29
5 35 -8
6 35 -8
7 3 30
8 3 30
9 3 30
10 3 30
11 15 -23
12 15 -23
13 15 -23
14 15 -23
15 -43 21
16 -43 21
17 -43 21
18 -43 21
19 -43 21
20 -11 37
21 -11 37
22 -11 37
23 -11 37
24 -11 37
25 -11 37
26 -11 37
27 -42 2
28 -42 2
29 40 -48
30 40 -48
31 40 -48
32 40 -48
33 40 -48
34 40 -48
35 40 -48
36 -35 26
37 -35 26
38 -35 26
39 -35 26
40 -35 26
41 -35 26
42 -35 26
43 8 -38
44 8 -38
45 8 -38
46 9 -29
47 9 -29
48 9 -29
49 -15 -23
50 -15 -23
51 -1 -27
52 -1 -27
53 -1 -27
54 0 9
55 0 9
56 0 9
57 0 9
58 0 9
59 -13 29
60 -13 29
61 24 -42
62 24 -42
63 24 -42
64 -31 32
65 -31 32
66 -31 32
67 -31 32
68 -31 32
69 16 1
70 16 1
71 16 1
72 16 1
73 20 37
74 20 37
75 20 37
76 40 17
77 40 17
78 35 25
79 35 25
80 35 25
81 35 25
82 35 25
83 -26 -38
84 -26 -38
85 -26 -38
86 -7 -44
87 -7 -44
88 -7 -44
89 -1 49
90 -1 49
91 -1 49
92 -1 49
93 -1 49
94 -1 49
95 -32 24
96 -32 24
97 -32 24
98 -45 -26
99 -45 -26
100 -45 -26
101 43 -10
102 43 -10
103 43 -10
104 10 -28
105 10 -28
106 10 -28
107 10 -28
108 10 -28
109 -3 -8
110 -3 -8
111 -3 -8
112 -3 -8
113 -3 -8
114 -3 -8
115 -3 -8
116 34 -30
117 34 -30
118 34 -30
119 -7 -41
120 -7 -41
121 -8 -30
122 -8 -30
123 -8 -30
124 -8 -30
125 -8 -30
126 -8 -30
127 -31 -29
128 -31 -29
129 -31 -29
130 -31 -29
131 -31 -29
132 -31 -29
133 18 21
134 18 21
135 9 -22
136 9 -22
137 9 -22
138 9 -22
139 9 -22
140 9 -22
141 -44 -22
142 -44 -22
143 -44 -22
144 -44 -22
145 -44 -22
146 -34 -50
147 -34 -50
148 -34 -50
149 -34 -50
150 -45 29
151 -45 29
152 -45 29
153 -45 29
154 -45 29
155 -45 29
156 -2 -8
157 -2 -8
158 -2 -8
159 -2 -8
160 -35 -41
161 -35 -41
162 -13 5
163 -13 5
164 -13 5
165 -13 5
166 -19 -23
167 -19 -23
168 -19 -23
169 -19 -23
170 -19 -23
171 -19 -23
172 2 33
173 2 33
174 2 33
175 2 33
176 2 33
177 2 33
178 2 33
179 -20 -1
180 -20 -1
181 -20 -1
182 -20 -1
183 22 -4
184 22 -4
185 22 -4
186 22 -4
187 48 -39
188 48 -39
189 48 -39
190 48 -39
191 48 -39
192 14 23
193 14 23
194 14 23
195 14 23
196 -23 -10
197 -23 -10
198 -21 -17
199 -21 -17
200 -21 -17
201 -21 -17
202 -21 -17
203 -21 -17
204 29 14
205 29 14
206 29 14
207 29 14
208 29 14
209 29 14
210 -14 -17
211 -14 -17
212 -14 -17
213 -14 -17
214 -14 -17
215 -14 -17
216 -26 12
217 -26 12
218 -26 12
219 -26 12
220 -26 12
221 -26 12
222 17 -22
223 17 -22
224 17 -22
225 17 -22
226 17 -22
227 -27 -33
228 -27 -33
229 -27 -33
230 -27 -33
231 -27 -33
232 36 31
233 36 31
234 -2 -29
235 -2 -29
236 -2 -29
237 -2 -29
238 -2 -29
239 -2 -29
240 -42 -43
241 -42 -43
242 -42 -43
243 -42 -43
244 -15 46
245 -15 46
246 -15 46
247 -15 46
248 -15 46
249 -15 46
250 11 6
251 11 6
252 11 6
253 11 6
254 -11 34
255 -11 34
256 -42 -11
257 -42 -11
258 -42 -11
259 -42 -11
260 -42 -11
261 -42 -11
262 -24 6
263 -24 6
264 -24 6
265 -43 42
266 -43 42
267 -43 42
268 -47 -13
269 -47 -13
270 -47 -13
271 -47 -13
272 -47 -13
273 -25 -1
274 -25 -1
275 -25 -1
276 -25 -1
277 -25 -1
278 -11 -25
279 -11 -25
280 -11 -25
281 -11 -25
282 -11 -25
283 -11 -25
284 -42 47
285 -42 47
286 31 -41
287 31 -41
288 31 -41
289 31 -41
290 31 -41
291 -5 -40
292 -5 -40
293 -5 -40
294 -5 -40
295 -32 -37
296 -32 -37
297 -46 10
298 -46 10
299 -46 10
300 -46 10
301 -46 10
302 -46 10
303 -10 15
304 -10 15
305 -10 15
306 -10 15
307 -2 -11
308 -2 -11
309 -2 -11
310 -2 -11
311 -28 30
312 -28 30
313 -28 30
314 -28 30
315 -28 30
316 -28 30
317 -50 23
318 -50 23
319 -50 23
320 10 35
321 10 35
322 10 35
323 10 35
324 10 35
325 3 -4
326 3 -4
327 3 -4
328 3 -4
329 -35 -40
330 -35 -40
331 -35 -40
332 28 -2
333 28 -2
334 28 -2
335 -48 38
336 -48 38
337 -48 38
338 -48 38
339 -48 38
340 -42 -24
341 -42 -24
342 -42 -24
343 -42 -24
344 20 40
345 20 40
346 20 40
347 20 40
348 20 40
349 0 -43
350 0 -43
351 0 -43
352 0 -43
353 0 -43
354 0 -43
355 28 12
356 28 12
357 28 12
358 28 12
359 28 12
360 28 12
361 -11 35
362 -11 35
363 -11 35
364 -11 35
365 34 -18
366 34 -18
367 34 -18
368 34 -18
369 34 -18
370 34 -18
371 -22 -23
372 -22 -23
373 -22 -23
374 -22 -23
375 -22 -23
376 31 -8
377 31 -8
378 31 -8
379 31 -8
380 31 -8
381 9 22
382 9 22
383 9 22
384 9 22
385 9 22
386 -20 27
387 -20 27
388 -20 27
389 -20 27
390 -20 27
391 -20 27
392 -37 -36
393 -37 -36
394 -37 -36
395 -37 -36
396 -37 -36
397 -37 -36
398 37 -30
399 37 -30
400 37 -30
401 37 -30
402 37 -30
403 39 -17
404 39 -17
405 20 28
406 20 28
407 23 -5
408 23 -5
409 23 -5
410 23 -5
411 23 -5
412 23 -5
413 7 39
414 7 39
415 7 39
416 7 39
417 7 39
418 7 39
419 -45 40
420 -45 40
421 44 -10
422 44 -10
423 44 -10
424 44 -10
425 34 -36
426 34 -36
427 34 -36
428 34 -36
429 34 -36
430 -43 -48
431 -43 -48
432 -19 17
433 -19 17
434 -42 3
435 -42 3
436 18 7
437 18 7
438 18 7
439 -22 -39
440 -22 -39
441 -22 -39
442 24 3
443 24 3
444 36 -17
445 36 -17
446 -29 -23
447 -29 -23
448 -29 -23
449 -29 -23
450 -29 -23
451 36 -14
452 36 -14
453 36 -14
454 36 -14
455 36 -14
456 40 -33
457 40 -33
458 40 -33
459 40 -33
460 40 -33
461 -22 -39
462 -22 -39
463 -22 -39
464 7 43
465 7 43
466 7 43
467 7 43
468 7 43
469 7 43
470 35 18
471 35 18
472 35 18
473 -36 -12
474 -36 -12
475 -36 -12
476 -36 -12
477 -36 -12
478 -45 10
479 -45 10
480 -45 10
481 -45 10
482 -45 10
483 -44 26
484 -44 26
485 -44 26
486 -44 26
487 -34 -2
488 -34 -2
489 -34 -2
490 -25 -32
491 -25 -32
492 -25 -32
493 -35 -34
494 -35 -34
495 -35 -34
496 -35 -34
497 -35 -34
498 -35 -34
499 32 -22
500 32 -22
501 32 -22
502 32 -22
503 32 -22
504 32 -22
505 32 -22
506 44 20
507 44 20
508 44 20
509 -25 31
510 -25 31
511 45 -29
512 45 -29
513 45 -29
514 45 -29
515 45 -29
516 45 -29
517 -5 9
518 -5 9
519 -5 9
520 -5 9
521 -5 9
522 -5 9
523 -49 5
524 -49 5
525 -11 40
526 -11 40
527 -11 40
528 -11 40
529 -11 40
530 -11 40
531 -11 40
532 28 -23
533 28 -23
534 -9 30
535 -9 30
536 -9 30
537 -9 30
538 -9 30
539 -9 30
540 39 49
541 39 49
542 -14 46
543 -14 46
544 -14 46
545 -14 46
546 -14 46
547 -26 -4
548 -26 -4
549 -26 -4
550 -26 -4
551 14 15
552 14 15
553 14 15
554 14 15
555 34 43
556 34 43
557 34 43
558 49 -15
559 49 -15
560 49 -15
561 -20 36
562 -20 36
563 -20 36
564 43 -23
565 43 -23
566 -3 -15
567 -3 -15
568 -3 -15
569 -3 -15
570 -3 -15
571 -3 -15
572 -3 -15
573 -18 -23
574 -18 -23
575 -18 -23
576 -18 -23
577 -18 -23
578 30 -24
579 30 -24
580 30 -24
581 30 -24
582 30 -24
583 -25 26
584 -25 26
585 -25 26
586 -25 26
587 -25 26
588 45 -24
589 45 -24
590 -5 -33
591 -5 -33
592 -5 -33
593 -5 -33
594 -5 -33
595 -37 42
596 -37 42
597 -12 -45
598 -12 -45
599 -12 -45
600 -10 33
601 -10 33
602 -10 33
603 -10 33
604 -7 -5
605 -7 -5
606 -7 -5
607 -7 -5
608 23 43
609 23 43
610 -27 10
611 -27 10
612 -27 10
613 -27 10
614 -27 10
615 -27 10
616 11 -36
617 11 -36
618 11 -36
619 21 -42
620 21 -42
621 21 -42
622 21 -42
623 21 -42
624 37 -17
625 37 -17
626 37 -17
627 37 -17
628 -27 11
629 -27 11
630 -38 41
631 -38 41
632 -38 41
633 -38 41
634 49 -33
635 49 -33
636 49 -33
637 49 -33
638 49 -33
639 49 -33
640 39 34
641 39 34
642 39 34
643 39 34
644 39 34
645 39 34
646 32 8
647 32 8
648 33 48
649 33 48
650 33 48
651 -28 29
652 -28 29
653 -28 29
654 -28 29
655 50 28
656 50 28
657 45 -28
658 45 -28
659 45 -28
660 45 -28
661 -42 4
662 -42 4
663 39 -45
664 39 -45
665 39 -45
666 39 -45
667 5 29
668 5 29
669 5 29
670 5 29
671 5 29
672 21 -37
673 21 -37
674 21 -37
675 -16 30
676 -16 30
677 -16 30
678 -16 30
679 -35 0
680 -35 0
681 27 46
682 27 46
683 27 46
684 27 46
685 27 46
686 27 46
687 17 42
688 17 42
689 17 42
690 17 42
691 17 42
692 28 -34
693 28 -34
694 28 -34
695 28 -34
696 -11 3
697 -11 3
698 -11 3
699 38 4
700 38 4
701 38 4
702 38 4
703 38 4
704 38 4
705 -10 33
706 -10 33
707 -10 33
708 -10 33
709 -10 33
710 -10 33
711 -10 33
712 -5 -2
713 -5 -2
714 -5 -2
715 -5 -2
716 -5 -2
717 -5 -2
718 -7 33
719 -7 33
720 -7 33
721 42 -1
722 42 -1
723 42 -1
724 42 -1
725 42 -1
726 42 -1
727 16 40
728 16 40
729 50 -14
730 50 -14
731 50 -14
732 50 -14
733 50 -14
734 6 -40
735 6 -40
736 6 -40
737 49 -13
738 49 -13
739 49 -13
740 -25 26
741 -25 26
742 -25 26
743 -25 26
744 -25 26
745 -25 26
746 -25 26
747 -3 -48
748 -3 -48
749 -3 -48
750 -3 -48
751 3 -34
752 3 -34
753 3 -34
754 3 -34
755 3 -34
756 -20 -47
757 -20 -47
758 -20 -47
759 -20 -47
760 46 11
761 46 11
762 46 11
763 46 11
764 34 -44
765 34 -44
766 -16 42
767 -16 42
768 -16 42
769 -16 42
770 -16 21
771 -16 21
772 -16 21
773 -16 21
774 -24 -17
775 -24 -17
776 -24 -17
777 -24 -17
778 -24 -17
779 -24 -17
780 -24 -17
781 43 -10
782 43 -10
783 43 -10
784 43 -10
785 43 -10
786 43 -10
787 43 -10
788 -40 -8
789 -40 -8
790 -16 42
791 -16 42
792 -16 42
793 -16 42
794 -37 -28
795 -37 -28
796 -45 -30
797 -45 -30
798 -45 -30
799 -38 -28
800 -38 -28
801 -38 -28
802 -38 -28
803 -8 23
804 -8 23
805 -8 23
806 -8 23
807 -8 23
808 -8 23
809 -8 23
810 -2 -35
811 -2 -35
812 7 2
813 7 2
814 7 2
815 -21 31
816 -21 31
817 -21 31
818 -21 31
819 -21 31
820 -2 47
821 -2 47
822 -2 47
823 -2 47
824 -2 47
825 -1 8
826 -1 8
827 -1 8
828 -1 8
829 -1 8
DEMAND_SECTION
1 0
2 20
3 10
4 1
5 20
6 1
7 20
8 1
9 1
10 1
11 10
12 5
13 1
14 1
15 20
16 1
17 1
18 1
19 1
20 20
21 20
22 5
23 1
24 1
25 1
26 1
27 10
28 5
29 20
30 20
31 5
32 1
33 1
34 1
35 1
36 20
37 10
38 5
39 1
40 1
41 1
42 1
43 20
44 10
45 1
46 20
47 10
48 1
49 20
50 10
51 20
52 20
53 1
54 10
55 1
56 1
57 1
58 1
59 20
60 10
61 20
62 5
63 1
64 20
65 10
66 1
67 1
68 1
69 10
70 5
71 1
72 1
73 20
74 1
75 1
76 20
77 10
78 20
79 10
80 5
81 1
82 1
83 20
84 1
85 1
86 10
87 5
88 1
89 10
90 5
91 1
92 1
93 1
94 1
95 10
96 1
97 1
98 20
99 5
100 1
101 20
102 5
103 1
104 20
105 10
106 1
107 1
108 1
109 20
110 10
111 5
112 1
113 1
114 1
115 1
116 20
117 5
118 1
119 10
120 5
121 20
122 10
123 5
124 1
125 1
126 1
127 20
128 20
129 1
130 1
131 1
132 1
133 10
134 5
135 20
136 5
137 1
138 1
139 1
140 1
141 20
142 5
143 1
144 1
145 1
146 20
147 10
148 5
149 1
150 20
151 10
152 1
153 1
154 1
155 1
156 20
157 20
158 1
159 1
160 20
161 5
162 20
163 1
164 1
165 1
166 20
167 20
168 5
169 1
170 1
171 1
172 20
173 10
174 5
175 1
176 1
177 1
178 1
179 10
180 5
181 1
182 1
183 20
184 1
185 1
186 1
187 20
188 10
189 5
190 1
191 1
192 20
193 10
194 5
195 1
196 20
197 20
198 20
199 10
200 1
201 1
202 1
203 1
204 20
205 10
206 1
207 1
208 1
209 1
210 10
211 5
212 1
213 1
214 1
215 1
216 10
217 5
218 1
219 1
220 1
221 1
222 20
223 10
224 1
225 1
226 1
227 20
228 20
229 1
230 1
231 1
232 20
233 5
234 20
235 20
236 1
237 1
238 1
239 1
240 10
241 5
242 1
243 1
244 20
245 20
246 1
247 1
248 1
249 1
250 10
251 5
252 1
253 1
254 10
255 5
256 20
257 10
258 1
259 1
260 1
261 1
262 20
263 10
264 5
265 10
266 5
267 1
268 20
269 20
270 1
271 1
272 1
273 10
274 5
275 1
276 1
277 1
278 20
279 20
280 1
281 1
282 1
283 1
284 20
285 20
286 10
287 5
288 1
289 1
290 1
291 10
292 1
293 1
294 1
295 20
296 1
297 20
298 20
299 1
300 1
301 1
302 1
303 20
304 20
305 1
306 1
307 10
308 5
309 1
310 1
311 20
312 5
313 1
314 1
315 1
316 1
317 10
318 5
319 1
320 10
321 5
322 1
323 1
324 1
325 20
326 1
327 1
328 1
329 20
330 20
331 5
332 10
333 5
334 1
335 20
336 10
337 1
338 1
339 1
340 20
341 5
342 1
343 1
344 20
345 20
346 1
347 1
348 1
349 20
350 5
351 1
352 1
353 1
354 1
355 20
356 20
357 1
358 1
359 1
360 1
361 20
362 1
363 1
364 1
365 20
366 5
367 1
368 1
369 1
370 1
371 20
372 5
373 1
374 1
375 1
376 20
377 5
378 1
379 1
380 1
381 10
382 1
383 1
384 1
385 1
386 10
387 5
388 1
389 1
390 1
391 1
392 20
393 10
394 5
395 1
396 1
397 1
398 20
399 5
400 1
401 1
402 1
403 10
404 5
405 20
406 20
407 20
408 5
409 1
410 1
411 1
412 1
413 20
414 10
415 5
416 1
417 1
418 1
419 20
420 1
421 20
422 20
423 5
424 1
425 10
426 1
427 1
428 1
429 1
430 20
431 10
432 10
433 5
434 20
435 1
436 20
437 1
438 1
439 20
440 5
441 1
442 10
443 5
444 20
445 1
446 20
447 1
448 1
449 1
450 1
451 10
452 5
453 1
454 1
455 1
456 20
457 20
458 5
459 1
460 1
461 10
462 5
463 1
464 10
465 5
466 1
467 1
468 1
469 1
470 20
471 10
472 1
473 10
474 5
475 1
476 1
477 1
478 20
479 10
480 1
481 1
482 1
483 20
484 10
485 1
486 1
487 20
488 5
489 1
490 20
491 10
492 5
493 20
494 10
495 5
496 1
497 1
498 1
499 20
500 10
501 5
502 1
503 1
504 1
505 1
506 20
507 20
508 10
509 20
510 10
511 10
512 5
513 1
514 1
515 1
516 1
517 10
518 5
519 1
520 1
521 1
522 1
523 20
524 20
525 20
526 20
527 5
528 1
529 1
530 1
531 1
532 20
533 5
534 20
535 5
536 1
537 1
538 1
539 1
540 20
541 1
542 20
543 20
544 5
545 1
546 1
547 20
548 20
549 1
550 1
551 20
552 1
553 1
554 1
555 20
556 5
557 1
558 10
559 1
560 1
561 20
562 1
563 1
564 20
565 5
566 20
567 10
568 5
569 1
570 1
571 1
572 1
573 20
574 20
575 1
576 1
577 1
578 20
579 20
580 1
581 1
582 1
583 20
584 10
585 5
586 1
587 1
588 10
589 5
590 20
591 5
592 1
593 1
594 1
595 20
596 20
597 10
598 5
599 1
600 20
601 20
602 5
603 1
604 10
605 1
606 1
607 1
608 20
609 20
610 10
611 5
612 1
613 1
614 1
615 1
616 20
617 5
618 1
619 20
620 10
621 5
622 1
623 1
624 20
625 1
626 1
627 1
628 20
629 5
630 20
631 10
632 5
633 1
634 10
635 5
636 1
637 1
638 1
639 1
640 20
641 10
642 1
643 1
644 1
645 1
646 10
647 5
648 20
649 10
650 1
651 20
652 10
653 5
654 1
655 20
656 5
657 20
658 1
659 1
660 1
661 20
662 1
663 20
664 20
665 5
666 1
667 20
668 10
669 1
670 1
671 1
672 20
673 5
674 1
675 20
676 20
677 1
678 1
679 10
680 5
681 10
682 5
683 1
684 1
685 1
686 1
687 20
688 10
689 1
690 1
691 1
692 20
693 1
694 1
695 1
696 20
697 5
698 1
699 10
700 5
701 1
702 1
703 1
704 1
705 20
706 20
707 5
708 1
709 1
710 1
711 1
712 20
713 10
714 1
715 1
716 1
717 1
718 20
719 20
720 5
721 20
722 5
723 1
724 1
725 1
726 1
727 20
728 10
729 20
730 10
731 1
732 1
733 1
734 20
735 20
736 5
737 20
738 10
739 5
740 20
741 10
742 5
743 1
744 1
745 1
746 1
747 20
748 5
749 1
750 1
751 20
752 20
753 5
754 1
755 1
756 20
757 10
758 1
759 1
760 20
761 20
762 1
763 1
764 20
765 20
766 20
767 20
768 5
769 1
770 20
771 5
772 1
773 1
774 20
775 20
776 5
777 1
778 1
779 1
780 1
781 20
782 10
783 5
784 1
785 1
786 1
787 1
788 20
789 10
790 20
791 10
792 1
793 1
794 20
795 20
796 20
797 20
798 1
799 10
800 5
801 1
802 1
803 20
804 20
805 5
806 1
807 1
808 1
809 1
810 20
811 1
812 20
813 5
814 1
815 20
816 20
817 1
818 1
819 1
820 20
821 20
822 1
823 1
824 1
825 10
826 1
827 1
828 1
829 1
DEPOT_SECTION
1
-1
EOF