Normalized Data/p10_9_normalized_split0.sol
828 -1 3 2 708 706 600 705 704 710 602 707 -16 14 18 15 17 317 316 318 150 149 483 482 -29 32 30 33 31 28 34 663 664 665 662 426 427 425 428 -49 48 281 279 280 278 277 282 565 567 -52 51 50 234 233 236 238 306 309 307 308 -57 6 7 9 8 174 176 173 175 177 172 171 413 417 416 414 412 -79 77 81 78 80 642 639 644 643 641 640 232 231 -84 83 82 227 226 228 230 229 489 490 491 -94 96 95 38 41 39 40 37 36 35 66 64 63 67 65 431 432 -106 103 107 47 45 46 750 751 754 752 753 -117 115 116 457 455 459 456 458 398 400 397 399 -127 131 126 391 394 495 492 494 493 496 497 -130 128 129 328 330 329 160 159 295 294 213 212 214 -132 133 72 74 73 608 607 343 -138 135 134 137 136 11 13 12 10 221 223 224 222 324 326 325 327 -139 104 105 616 620 621 622 618 619 62 61 60 671 -146 145 148 147 430 429 241 239 242 240 393 396 392 395 -158 156 155 157 113 108 112 111 109 110 114 713 714 716 712 -169 170 167 372 370 374 373 371 449 445 446 447 448 196 195 -178 180 179 181 274 273 276 678 486 488 487 547 546 -184 183 379 375 5 4 450 451 454 453 452 403 402 626 625 623 624 -192 191 194 193 404 405 550 552 551 553 -201 202 198 199 200 197 774 776 779 778 777 773 775 605 603 606 604 -204 205 206 203 207 208 354 358 355 357 356 359 435 -209 210 211 165 168 166 572 573 576 574 575 -218 215 220 219 217 216 628 627 612 614 609 611 613 610 261 262 263 697 -225 692 693 694 691 424 764 763 288 289 287 285 286 672 673 -237 235 592 591 596 597 598 758 757 756 755 460 440 438 439 462 461 -247 244 245 246 243 248 541 545 544 543 542 25 23 534 -250 249 251 252 441 442 698 699 703 702 701 700 722 725 724 721 720 723 331 333 332 -259 260 257 256 258 255 269 270 268 271 267 788 549 548 272 275 -293 292 290 291 119 118 85 86 87 747 748 746 749 352 348 353 351 350 349 -305 304 58 59 254 253 362 363 360 361 601 599 709 805 808 -314 315 629 266 264 265 419 418 338 336 335 337 334 154 152 153 151 484 485 -323 321 322 319 320 415 465 463 466 468 467 464 90 88 93 91 89 92 821 822 823 819 820 -339 342 341 340 97 99 98 141 144 143 142 140 473 475 474 476 472 -347 345 346 344 688 686 687 690 689 727 726 383 381 382 384 380 -368 365 369 366 367 364 443 444 563 564 588 587 502 504 501 503 500 -378 377 376 100 782 102 786 784 781 780 101 783 785 422 420 423 -390 387 386 509 508 310 313 312 311 651 653 650 652 -401 188 189 187 190 186 634 636 635 638 633 637 511 512 510 515 514 513 656 658 657 659 -411 408 409 407 406 410 182 185 68 69 70 71 813 812 811 -421 736 737 738 728 729 732 730 731 559 557 558 -434 660 661 299 298 300 296 297 301 481 478 480 477 479 -437 436 505 507 506 655 654 471 469 -470 76 75 759 762 760 761 646 645 -499 498 581 580 577 578 579 531 532 -518 521 516 519 303 302 802 807 806 804 803 -520 675 674 677 676 815 814 816 817 818 385 388 389 772 771 -536 538 535 20 21 24 19 22 528 526 529 524 527 530 525 826 -537 533 717 719 718 666 669 667 670 668 -556 555 554 540 539 647 648 649 685 683 681 680 684 682 -561 560 562 768 767 792 791 789 766 790 765 -571 566 568 570 569 122 124 121 120 125 123 589 590 593 809 810 -594 595 283 284 630 631 632 742 -617 615 42 44 43 735 734 733 -679 27 26 433 522 523 787 -715 711 695 696 161 164 163 162 517 55 53 56 54 828 825 827 824 -739 741 583 582 740 744 745 743 585 586 584 770 769 -794 793 801 799 800 798 797 796 795 0 





OBJ=
5365.459
BEST_KNOWN=
0.000